results/res_prop_muc/res_Cimatti_mathsat_cores/QF_IDL/SortingNetwork4_safe_bgmc003.smt.smt2.res
unsat
( c262
  c4
  c484
  c492
  c5
  c6
  c892
  c896
  c935
  c937
  c947 )
